\* Problem: Unknown *\

Maximize
 obj: + xp_0_0 + xp_0_1 + xp_1_0 + xp_2_0 + xp_2_1 + xp_3_0 + xp_3_1
 + xp_4_0 + xp_5_0 + xp_6_0 + xp_6_1 + xp_7_0 + xp_8_0 + xp_9_0
 + xp_10_0 + xp_10_1 + xp_10_2 + xp_11_0 + xp_12_0 + xp_12_1 + xp_13_0
 + xp_14_0 + xp_15_0 + xp_15_1 + xp_16_0 + xp_17_0 + xp_17_1 + xp_18_0
 + xp_18_1 + xp_19_0 + xp_20_0 + xp_21_0 + xp_21_1 + xp_21_2 + xp_22_0
 + xp_22_1 + xp_22_2 + xp_23_0 + xp_24_0 + xp_24_1 + xp_25_0 + xp_26_0
 + xp_27_0 + xp_28_0 + xp_29_0 + xp_29_1 + xp_30_0 + xp_31_0 + xp_31_1
 + xp_32_0 + xp_33_0 + xp_34_0 + xp_35_0 + xp_36_0 + xp_37_0 + xp_38_0
 + xp_38_1 + xp_39_0 + xp_40_0 + xp_40_1 + xp_41_0 + xp_42_0 + xp_42_1
 + xp_42_2 + xp_43_0 + xp_44_0 + xp_44_1 + xp_45_0 + xp_46_0 + xp_47_0
 + xp_48_0 + xp_48_1 + xp_49_0 + xp_50_0 + xp_51_0 + xp_52_0 + xp_52_1
 + xp_53_0 + xp_54_0 + xp_55_0 + xp_56_0 + xp_57_0 + xp_58_0 + xp_58_1
 + xp_59_0 + xp_60_0 + xp_60_1 + xp_60_2 + xp_61_0 + xp_62_0 + xp_63_0
 + xp_64_0 + xp_65_0

Subject To
 r_1: + xp_60_1 + xp_53_0 + xp_51_0 + xp_42_2 + xp_40_0 + xp_35_0
 + xp_33_0 <= 153.637538779731
 r_2: + xp_58_1 + xp_15_1 <= 153.637538779731
 r_3: + xp_56_0 + xp_21_0 + xp_12_0 <= 153.637538779731
 r_4: + xp_65_0 + xp_50_0 + xp_45_0 + xp_24_1 + xp_24_0 + xp_21_2
 + xp_15_0 + xp_10_1 + xp_10_0 + xp_5_0 + xp_2_1 <= 141.596349491323
 r_5: + xp_38_1 + xp_31_1 + xp_17_0 + xp_14_0 <= 141.596349491323
 r_6: + xp_52_1 + xp_22_2 + xp_22_0 + xp_21_1 + xp_13_0 + xp_12_1
 + xp_10_2 + xp_3_1 + xp_3_0 + xp_2_0 <= 148.340353833193
 r_7: + xp_60_2 + xp_48_1 + xp_46_0 + xp_42_1 + xp_42_0 + xp_40_1
 + xp_0_0 <= 152.393669634026
 r_8: 0 xp_0_0 <= 152.393669634026
 r_9: + xp_64_0 + xp_29_1 + xp_25_0 + xp_21_0 + xp_6_0
 <= 153.637538779731
 r_10: + xp_63_0 <= 151.25355450237
 r_11: + xp_60_0 + xp_38_0 + xp_31_0 <= 155
 r_12: + xp_62_0 + xp_61_0 + xp_60_2 + xp_60_1 + xp_22_1
 <= 148.340353833193
 r_13: + xp_64_0 + xp_59_0 + xp_58_1 + xp_56_0 + xp_29_1 + xp_29_0
 + xp_21_0 + xp_20_0 + xp_15_1 + xp_12_0 <= 153.637538779731
 r_14: + xp_60_1 + xp_57_0 + xp_53_0 + xp_42_2 + xp_42_1 + xp_35_0
 + xp_18_0 <= 153.637538779731
 r_15: + xp_58_0 <= 152.393669634026
 r_16: + xp_65_0 + xp_55_0 + xp_53_0 + xp_51_0 + xp_50_0 + xp_44_1
 + xp_10_1 + xp_10_0 <= 153.637538779731
 r_17: + xp_58_1 + xp_54_0 + xp_52_1 + xp_36_0 + xp_31_1
 <= 141.596349491323
 r_18: + xp_52_0 + xp_21_2 + xp_2_1 <= 155
 r_19: + xp_60_0 + xp_48_0 <= 152.393669634026
 r_20: + xp_50_0 + xp_49_0 + xp_48_1 + xp_46_0 + xp_45_0 + xp_22_2
 + xp_10_2 + xp_10_1 + xp_3_1 <= 141.596349491323
 r_21: + xp_47_0 + xp_26_0 + xp_22_1 + xp_17_1 + xp_17_0 + xp_7_0 <= 155
 r_22: + xp_61_0 + xp_60_2 + xp_43_0 + xp_42_1 + xp_42_0 + xp_40_1
 + xp_38_1 <= 148.340353833193
 r_23: + xp_56_0 + xp_52_1 + xp_52_0 + xp_41_0 + xp_38_0 + xp_34_0
 + xp_31_0 <= 148.340353833193
 r_24: + xp_62_0 + xp_60_1 + xp_44_1 + xp_44_0 + xp_42_2 + xp_40_0
 + xp_39_0 + xp_21_1 + xp_12_1 + xp_10_2 + xp_2_0 <= 148.340353833193
 r_25: + xp_62_0 + xp_60_1 + xp_44_0 + xp_42_2 + xp_40_0 + xp_37_0
 + xp_35_0 + xp_33_0 + xp_10_2 <= 153.637538779731
 r_26: + xp_44_1 + xp_39_0 + xp_36_0 + xp_32_0 + xp_31_1 <= 155
 r_27: + xp_56_0 + xp_52_0 + xp_34_0 + xp_31_0 + xp_30_0
 <= 148.340353833193
 r_28: + xp_60_2 + xp_60_0 + xp_48_1 + xp_48_0 + xp_42_0 + xp_29_1
 + xp_27_0 + xp_25_0 + xp_21_0 + xp_18_1 + xp_8_0 + xp_6_0
 <= 151.25355450237
 r_29: + xp_29_0 + xp_28_0 + xp_24_1 + xp_22_0 + xp_6_1 + xp_0_1
 <= 152.393669634026
 r_30: + xp_63_0 + xp_26_0 + xp_24_0 + xp_23_0 + xp_22_2 + xp_22_1
 + xp_21_2 + xp_21_1 + xp_17_1 <= 152.393669634026
 r_31: + xp_58_0 + xp_28_0 + xp_24_1 + xp_22_0 + xp_19_0 + xp_17_0
 + xp_15_0 + xp_14_0 + xp_13_0 + xp_12_1 <= 152.393669634026
 r_32: + xp_46_0 + xp_42_1 + xp_40_1 + xp_29_0 + xp_20_0 + xp_18_0
 + xp_16_0 + xp_15_1 + xp_12_0 + xp_6_1 <= 152.393669634026
 r_33: + xp_60_2 + xp_48_1 + xp_42_0 + xp_18_1 + xp_17_1 + xp_11_0
 <= 152.393669634026
 r_34: + xp_26_0 + xp_23_0 + xp_22_2 + xp_22_1 + xp_17_1 + xp_10_2
 + xp_10_1 + xp_7_0 + xp_4_0 + xp_3_1 <= 152.393669634026
 r_35: + xp_60_0 + xp_48_0 + xp_8_0 + xp_6_1 + xp_6_0 + xp_1_0 + xp_0_1
 <= 152.393669634026
 r_36: + xp_63_0 + xp_24_0 + xp_21_2 + xp_21_1 + xp_10_0 + xp_9_0
 + xp_5_0 + xp_3_0 + xp_2_1 + xp_2_0 + xp_0_0 <= 152.393669634026

Bounds
 0 <= xp_0_0 <= 5.51953981008035
 0 <= xp_0_1 <= 22.0781592403214
 0 <= xp_1_0 <= 22.3612125639153
 0 <= xp_2_0 <= 14.7753834915997
 0 <= xp_2_1 <= 9.85025566106647
 0 <= xp_3_0 <= 11.4353542731921
 0 <= xp_3_1 <= 2.85883856829803
 0 <= xp_4_0 <= 28.0222790357925
 0 <= xp_5_0 <= 22.3612125639153
 0 <= xp_6_0 <= 10.3031409788167
 0 <= xp_6_1 <= 15.454711468225
 0 <= xp_7_0 <= 21.7951059167275
 0 <= xp_8_0 <= 24.7671658144631
 0 <= xp_9_0 <= 17.2662527392257
 0 <= xp_10_0 <= 9.68042366691015
 0 <= xp_10_1 <= 3.22680788897005
 0 <= xp_10_2 <= 3.22680788897005
 0 <= xp_11_0 <= 25.3332724616508
 0 <= xp_12_0 <= 9.93517165814463
 0 <= xp_12_1 <= 6.62344777209642
 0 <= xp_13_0 <= 14.8602994886779
 0 <= xp_14_0 <= 22.5027392257122
 0 <= xp_15_0 <= 11.208911614317
 0 <= xp_15_1 <= 16.8133674214755
 0 <= xp_16_0 <= 26.7485390796202
 0 <= xp_17_0 <= 9.39737034331629
 0 <= xp_17_1 <= 14.0960555149744
 0 <= xp_18_0 <= 8.03871439006574
 0 <= xp_18_1 <= 12.0580715850986
 0 <= xp_19_0 <= 19.3891526661797
 0 <= xp_20_0 <= 23.0688458728999
 0 <= xp_21_0 <= 7.41599707815924
 0 <= xp_21_1 <= 7.41599707815924
 0 <= xp_21_2 <= 3.70799853907962
 0 <= xp_22_0 <= 4.50054784514244
 0 <= xp_22_1 <= 13.5016435354273
 0 <= xp_22_2 <= 4.50054784514244
 0 <= xp_23_0 <= 23.2103725346969
 0 <= xp_24_0 <= 7.24616508400292
 0 <= xp_24_1 <= 10.8692476260044
 0 <= xp_25_0 <= 27.5976990504018
 0 <= xp_26_0 <= 18.3984660336012
 0 <= xp_27_0 <= 14.8602994886779
 0 <= xp_28_0 <= 24.4841124908692
 0 <= xp_29_0 <= 13.331811541271
 0 <= xp_29_1 <= 8.88787436084733
 0 <= xp_30_0 <= 27.4561723886048
 0 <= xp_31_0 <= 3.5381665449233
 0 <= xp_31_1 <= 14.1526661796932
 0 <= xp_32_0 <= 15.5679327976625
 0 <= xp_33_0 <= 18.681519357195
 0 <= xp_34_0 <= 22.5027392257122
 0 <= xp_35_0 <= 15.4264061358656
 0 <= xp_36_0 <= 17.8323593864134
 0 <= xp_37_0 <= 14.1526661796932
 0 <= xp_38_0 <= 7.01972242512783
 0 <= xp_38_1 <= 10.5295836376917
 0 <= xp_39_0 <= 15.0018261504748
 0 <= xp_40_0 <= 15.3981008035062
 0 <= xp_40_1 <= 3.84952520087655
 0 <= xp_41_0 <= 20.3798392987582
 0 <= xp_42_0 <= 9.51059167275383
 0 <= xp_42_1 <= 9.51059167275383
 0 <= xp_42_2 <= 4.75529583637692
 0 <= xp_43_0 <= 16.8416727538349
 0 <= xp_44_0 <= 14.3791088385683
 0 <= xp_44_1 <= 3.59477720964207
 0 <= xp_45_0 <= 14.8602994886779
 0 <= xp_46_0 <= 20.804419284149
 0 <= xp_47_0 <= 19.8137326515705
 0 <= xp_48_0 <= 16.8133674214755
 0 <= xp_48_1 <= 11.208911614317
 0 <= xp_49_0 <= 14.7187728268809
 0 <= xp_50_0 <= 15.9925127830533
 0 <= xp_51_0 <= 23.9180058436815
 0 <= xp_52_0 <= 21.172388604821
 0 <= xp_52_1 <= 5.29309715120526
 0 <= xp_53_0 <= 27.7392257121987
 0 <= xp_54_0 <= 27.3146457268079
 0 <= xp_55_0 <= 21.3705259313367
 0 <= xp_56_0 <= 15.0018261504748
 0 <= xp_57_0 <= 17.6908327246165
 0 <= xp_58_0 <= 21.9649379108839
 0 <= xp_58_1 <= 5.49123447772096
 0 <= xp_59_0 <= 27.4561723886048
 0 <= xp_60_0 <= 6.96311176040906
 0 <= xp_60_1 <= 6.96311176040906
 0 <= xp_60_2 <= 3.48155588020453
 0 <= xp_61_0 <= 25.6163257852447
 0 <= xp_62_0 <= 27.3146457268079
 0 <= xp_63_0 <= 25.6163257852447
 0 <= xp_64_0 <= 27.5976990504018
 0 <= xp_65_0 <= 19.9552593133674

End
